
Gurobi 10.0.3 (linux64, gurobi_cl) logging started Thu Nov  9 11:48:13 2023

Set parameter Username
Set parameter TimeLimit to value 3600
Set parameter LogFile to value "RCPSP_1096.log"
Set parameter Threads to value 32
Academic license - for non-commercial use only - expires 2024-10-30
Using license file /home/jrivera6/gurobi-licenses/v1003/compute-0-38/gurobi.lic

Gurobi Optimizer version 10.0.3 build v10.0.3rc0 (linux64)
Copyright (c) 2023, Gurobi Optimization, LLC

Read MPS format model from file RCPSP_1096.mps
Reading time = 0.22 seconds
RCPSP_1096: 42919 rows, 17020 columns, 159123 nonzeros

CPU model: Intel(R) Xeon(R) Gold 6242 CPU @ 2.80GHz, instruction set [SSE2|AVX|AVX2|AVX512]
Thread count: 32 physical cores, 32 logical processors, using up to 32 threads

Optimize a model with 42919 rows, 17020 columns and 159123 nonzeros
Model fingerprint: 0xdd632d4c
Variable types: 92 continuous, 16928 integer (16928 binary)
Coefficient statistics:
  Matrix range     [1e+00, 5e+02]
  Objective range  [1e+00, 1e+00]
  Bounds range     [1e+00, 1e+00]
  RHS range        [1e+00, 5e+02]
Presolve removed 7437 rows and 1746 columns
Presolve time: 2.60s
Presolved: 35482 rows, 15274 columns, 138540 nonzeros
Variable types: 91 continuous, 15183 integer (15183 binary)

Deterministic concurrent LP optimizer: primal and dual simplex (primal and dual model)
Showing first log only...

Root relaxation presolved: 35482 rows, 15274 columns, 138540 nonzeros

Concurrent spin time: 0.03s

Solved with dual simplex (dual model)

Root relaxation: objective 7.600000e+01, 10367 iterations, 1.50 seconds (0.11 work units)
Total elapsed time = 6.39s

    Nodes    |    Current Node    |     Objective Bounds      |     Work
 Expl Unexpl |  Obj  Depth IntInf | Incumbent    BestBd   Gap | It/Node Time

     0     0   76.00000    0  377          -   76.00000      -     -    8s
     0     0   76.00000    0  881          -   76.00000      -     -   28s
     0     0   76.00000    0  946          -   76.00000      -     -   30s
     0     0   76.00000    0  938          -   76.00000      -     -   30s
     0     0   76.00000    0  900          -   76.00000      -     -   34s
     0     0   76.00000    0  108          -   76.00000      -     -   51s
     0     0   76.00000    0  513          -   76.00000      -     -   54s
     0     0   76.00000    0   84          -   76.00000      -     -   65s
     0     0   76.00000    0   84          -   76.00000      -     -   65s
     0     0   76.00000    0  382          -   76.00000      -     -   69s
     0     0   76.00000    0  370          -   76.00000      -     -   69s
     0     0   76.00000    0   82          -   76.00000      -     -   79s
     0     0   76.00000    0  653          -   76.00000      -     -   81s
     0     0   76.00000    0  602          -   76.00000      -     -   81s
     0     0   76.00000    0   88          -   76.00000      -     -   93s
     0     0   76.00000    0  428          -   76.00000      -     -  102s
     0     0   76.00000    0  294          -   76.00000      -     -  110s
     0     0   76.00000    0  603          -   76.00000      -     -  113s
     0     0   76.00000    0  581          -   76.00000      -     -  113s
     0     0   76.00000    0  115          -   76.00000      -     -  122s
     0     0   76.00000    0  115          -   76.00000      -     -  124s
     0     2   76.00000    0   42          -   76.00000      -     -  146s
     1     4   76.00000    1   42          -   76.00000      -  2538  150s
     3     8   76.00000    2  241          -   76.00000      -   966  158s
     7    16   76.00000    3  201          -   76.00000      -   654  170s
    15    32   76.00000    4  221          -   76.00000      -   494  185s
    31    61   76.00000    5  223          -   76.00000      -   436  196s
    63    90   76.00000    6  214          -   76.00000      -   379  208s
    95   116   76.00000    7  214          -   76.00000      -   381  212s
   127   143   76.00000    8  224          -   76.00000      -   292  217s
   159   171   76.00000    9  228          -   76.00000      -   241  223s
   191   201   76.00000   10  224          -   76.00000      -   205  238s
   225   236   76.00000   11  224          -   76.00000      -   239  242s
   263   270   76.00000   12  222          -   76.00000      -   207  246s
   345   347   76.00000   15  219          -   76.00000      -   162  253s
   387   393   76.00000   16  219          -   76.00000      -   145  258s
   435   429   76.00000   17  216          -   76.00000      -   131  272s
   480   537   76.00000   18  216          -   76.00000      -   130  280s
   596   732   76.00000   21  210          -   76.00000      -   109  292s
   798  1058   76.00000   29  202          -   76.00000      -  92.4  305s
  1131  1554   76.00000   33  185          -   76.00000      -  72.1  320s
  1666  2115   76.00000   47  222          -   76.00000      -  57.9  336s
  2271  2829   76.00000   67  170          -   76.00000      -  51.9  355s
  3076  3536   81.00000   97  140          -   76.00000      -  48.1  382s
  3962  4459   82.00000  129  269          -   76.00000      -  47.8  408s
  5070  5609   82.00000  164  218          -   76.00000      -  47.0  442s
  6422  7149   80.00000   35  433          -   76.00000      -  46.5  523s
  8317  9219   80.00000   88  371          -   76.00000      -  44.3  570s
 10896  9220   76.00000   91  115          -   76.00000      -  43.2  621s
 10898  9221   81.00000  162  108          -   76.00000      -  43.1  638s
 10899  9222   79.00000  137   46          -   76.00000      -  43.1  646s
 10900  9223   79.00000  119  686          -   76.00000      -  43.1  652s
 10901  9223   76.00000   87   54          -   76.00000      -  43.1  659s
 10902  9224   79.00000  127  468          -   76.00000      -  43.1  662s
 10903  9225   80.00000  168   42          -   76.00000      -  43.1  669s
 10904  9225   87.00000  143  174          -   76.00000      -  43.1  672s
 10905  9226   83.00000  140   51          -   76.00000      -  43.1  681s
 10906  9227   85.00000  255  247          -   76.00000      -  43.1  688s
 10907  9227   83.00000  169   25          -   76.00000      -  43.1  700s
 10909  9229   84.00000   67   74          -   76.00000      -  43.1  712s
 10910  9229   80.00000  161  259          -   76.00000      -  43.1  717s
 10911  9230   92.59821  101   98          -   76.00000      -  43.1  726s
 10912  9231   79.00000   98  348          -   76.00000      -  43.1  730s
 10913  9231   79.00000  105   36          -   76.00000      -  43.1  736s
H10914  8770                     513.0000000   76.00000  85.2%  43.1  743s
H10916  8332                     152.0000000   76.00000  50.0%  43.1  753s
 10918  8337   76.00000   13   30  152.00000   76.00000  50.0%  51.5  769s
 10920  8340   76.00000   14   28  152.00000   76.00000  50.0%  51.5  779s
 10924  8347   76.00000   15   28  152.00000   76.00000  50.0%  51.5  791s
 10932  8360   76.00000   16   28  152.00000   76.00000  50.0%  51.6  800s
H10948  7968                     147.0000000   76.00000  48.3%  51.7  821s
H10949  7571                     145.0000000   76.00000  47.6%  51.7  821s
H10955  7192                     143.0000000   76.00000  46.9%  51.6  822s
H10957  6835                     142.0000000   76.00000  46.5%  51.6  822s
 10980  6859   76.00000   18   30  142.00000   76.00000  46.5%  51.9  838s
 11012  6880   76.00000   19   30  142.00000   76.00000  46.5%  51.9  853s
 11044  6900   80.00000   19  168  142.00000   76.00000  46.5%  52.1  864s
 11076  6921   76.00000   20   98  142.00000   76.00000  46.5%  52.0  874s
 11108  6942   76.00000   20   30  142.00000   76.00000  46.5%  52.0  889s
 11140  6968   76.00000   21   46  142.00000   76.00000  46.5%  52.5  898s
 11176  6988   76.00000   21   30  142.00000   76.00000  46.5%  52.5  972s
 11208  7011   76.00000   22   46  142.00000   76.00000  46.5%  52.5  985s
H11218  6668                     141.0000000   76.00000  46.1%  52.5  985s
 11242  6704   76.00000   22   16  141.00000   76.00000  46.1%  52.7 1000s
H11286  6398                     118.0000000   76.00000  35.6%  52.9 1215s
H11288  6091                     117.0000000   76.00000  35.0%  52.9 1215s
H11294  5798                     112.0000000   76.00000  32.1%  52.9 1215s
H11318  5541                     111.0000000   76.00000  31.5%  52.9 1802s
H11326  5276                     110.0000000   76.00000  30.9%  52.9 1802s
 11352  5296   76.00000   24   48  110.00000   76.00000  30.9%  53.0 2138s
 11389  5371   76.00000   24  273  110.00000   76.00000  30.9%  53.1 2154s
 11479  5456   76.00000   25   48  110.00000   76.00000  30.9%  53.4 2162s
 11597  5533   76.00000   27   50  110.00000   76.00000  30.9%  53.1 2172s
 11724  5700   76.00000   28   50  110.00000   76.00000  30.9%  52.9 2195s
 11949  5837   76.00000   30   48  110.00000   76.00000  30.9%  52.9 2215s
 12195  6056   76.00000   32   48  110.00000   76.00000  30.9%  53.0 2239s
H12552  5739                     108.0000000   76.00000  29.6%  52.8 2297s
 12611  5912   76.00000   37   72  108.00000   76.00000  29.6%  52.7 2351s
 12847  6428   81.00000   40  114  108.00000   76.00000  29.6%  52.9 2382s
H13555  5947                     104.0000000   76.00000  26.9%  52.9 2476s
H13556  5720                     103.0000000   76.00000  26.2%  52.9 2476s
H13587  5495                     102.0000000   76.00000  25.5%  53.1 2476s
 13593  6261   76.00000   47   68  102.00000   76.00000  25.5%  53.0 2501s
 14584  6961   77.00000   52  136  102.00000   76.00000  25.5%  52.7 2528s
 15854  7732   79.00000   61  146  102.00000   76.00000  25.5%  51.2 2564s
H16597  6169                      92.0000000   76.00000  17.4%  50.5 2564s
 17306  6164   79.00000   71  142   92.00000   76.00000  17.4%  49.3 2592s
 18162  7350   80.00000   88  277   92.00000   76.00000  17.4%  49.1 2630s
H18664  6664                      90.0000000   76.00000  15.6%  48.6 2630s
 20077  6927   80.00000  116  226   90.00000   76.00000  15.6%  47.3 2681s
 21612  7181   80.00000  142  190   90.00000   76.00000  15.6%  45.9 2937s
H21635  5996                      87.0000000   76.00000  12.6%  45.9 2938s
H22184  5571                      86.0000000   76.00000  11.6%  45.7 2938s
 22664  5886   80.00000  154  191   86.00000   76.00000  11.6%  45.5 3015s
 23543  6593   80.00000  158  195   86.00000   76.00000  11.6%  45.6 3100s
 24374  7468   80.00000  163  211   86.00000   76.00000  11.6%  44.9 3199s
 25424  8378 infeasible  169        86.00000   76.00000  11.6%  44.2 3305s
*26177  8375             265      86.0000000   76.00000  11.6%  43.7 3308s
 26602  9209   80.00000  179  213   86.00000   76.00000  11.6%  43.6 3529s
 27925 10803   81.00000  189  190   86.00000   76.00000  11.6%  43.5 3649s
 29392 10803   85.00000  140  238   86.00000   76.00000  11.6%  42.6 3650s

Cutting planes:
  Gomory: 54
  Cover: 7
  Implied bound: 123
  MIR: 87
  Flow cover: 707
  RLT: 41
  Relax-and-lift: 372

Explored 30329 nodes (1366387 simplex iterations) in 3693.99 seconds (203.51 work units)
Thread count was 32 (of 32 available processors)

Solution count 10: 86 86 87 ... 110

Time limit reached
Best objective 8.599999999130e+01, best bound 7.600000000000e+01, gap 11.6279%

Wrote result file 'RCPSP_1096.sol'

